c 
c U(n,d) graph
c graph gen seed     : 25075
c number of vertices : 15
c max number of edges: 500
c Euclidean distance : 0.200000
c data structure     : sparse
c
c           Graph Stats
c number of vertices  : 15
c nonisolated vertices: 8
c number of edges     : 8
c edge density        : 0.076190
c max degree          : 4
c avg degree          : 1.07
c min degree          : 0
p col 15 8
e 2 15
e 5 8
e 5 6
e 6 14
e 6 12
e 6 8
e 10 14
e 12 14
